20	5
0	7	19	4	6	5	1	3	2
1	2	9	8
2	2	17	20
3	1	15
4	2	17	21
5	2	12	7
6	2	9	10
7	2	16	13
8	1	18
9	2	14	13
10	2	8	20
11	3	17	7	1
12	1	21
13	1	21
14	1	21
15	1	21
16	1	21
17	1	21
18	1	21
19	1	21
20	1	21
21	0
0	0	0	0	0	0	0
1	1	0	4	2	2	0
2	9	5	0	0	3	0
3	8	0	4	3	5	1
4	8	0	4	3	4	0
5	2	3	0	0	4	1
6	5	0	0	0	4	3
7	2	0	0	3	2	0
8	10	2	3	0	5	1
9	4	0	2	0	0	0
10	6	0	1	4	0	0
11	1	0	0	0	5	0
12	7	0	0	5	0	0
13	5	0	0	1	3	1
14	3	2	4	0	0	0
15	4	1	0	0	1	0
16	4	0	1	0	4	4
17	4	1	5	1	4	1
18	7	0	1	3	0	0
19	7	2	5	2	0	4
20	2	2	0	0	0	0
21	0	0	0	0	0	0
6	7	7	8	6
